data;

set N := 0 1 2 3 4 5;
set C := 1 2 3 4;
set V := 1 2;

param G:= 100000;

param a:= 
    0 0
    1 2 
    2 4 
    3 2 
    4 4
    5 0;
    
param b:= 
    0 9
    1 4 
    2 6 
    3 4 
    4 6
    5 9;

param c: 0 1 2 3 4 5:=
       0 0 1 1 2 2 1
       1 2 0 1 3 5 1
       2 2 2 0 2 2 1
       3 1 2 2 0 1 1
       4 1 1 1 1 0 1
       5 0 1 1 2 2 0;

param t: 0 1 2 3 4 5 :=
       0 0 2 3 3 3 3
       1 2 0 1 1 1 1
       2 3 3 0 3 3 3
       3 1 1 1 0 1 3
       4 2 2 2 2 0 2
       5 0 2 3 3 3 0;


param d:= 
    1 5 
    2 5 
    3 5 
    4 5;
    
param q:= 20;
param m:= 2;

end;
